42	0

0	2	2	3
5	2	4	5
6	1	4
9	2	6	7
10	2	6	7
9	2	8	9
3	2	8	9
5	1	10
10	2	12	13
3	1	11
3	2	12	13
5	1	14
5	1	14
10	2	15	16
10	1	18
6	1	17
5	1	18
5	1	19
8	2	20	22
7	2	21	23
6	2	25	26
8	1	23
2	1	24
3	2	25	26
4	1	27
2	2	27	29
3	2	28	30
9	2	31	34
10	2	30	34
7	1	31
2	1	32
4	1	33
2	1	35
10	1	35
5	1	36
7	1	37
4	1	38
4	1	39
4	2	40	41
4	1	42
9	1	42
0	0
